letting n =  10
letting blocks =  [[1, 1], [1, 8], [1, 10], [2, 3], [2, 5], [2, 6], [2, 8], [3, 2], [3, 5], [3, 6], [3, 7], [3, 9], [4, 8], [5, 2], [5, 4], [5, 7], [5, 8], [5, 10], [7, 1], [7, 5], [9, 7], [9, 9], [10, 5], [10, 9]]
